echo both

include		in.partitions
log 		log.lammps.${p_id} append

include		in.temp
include		in.pressure
include 	in.seed
units		metal
atom_style	atomic
box		tilt large
include		in.box
include 	in.setup

minimize 1.0e-2 1.0e-3 100 1000

reset_timestep 	0

# NVT

fix             1 all nve
fix             2 all temp/csvr ${temperature} ${temperature} ${tempDamp} ${seed}

velocity        all create ${temperature} ${seed} dist gaussian
run             25000

unfix           1
unfix           2

# NVT

fix             1 all nph iso ${pressure} ${pressure} ${pressureDamp}
fix             2 all temp/csvr ${temperature} ${temperature} ${tempDamp} ${seed}

velocity        all create ${temperature} ${seed} dist gaussian
run             25000

unfix           1
unfix           2

# NPT

fix             2 all nph &
		x ${pressure} ${pressure} ${pressureDamp} &
		y ${pressure} ${pressure} ${pressureDamp} &
		z ${pressure} ${pressure} ${pressureDamp} &
		xy 0.0 0.0 ${pressureDamp} &
		yz 0.0 0.0 ${pressureDamp} &
		xz 0.0 0.0 ${pressureDamp} &
		couple xyz
fix             3 all temp/csvr ${temperature} ${temperature} ${tempDamp} ${seed}
fix		4 all momentum 10000 linear 1 1 1 angular

run             5000000 # 10 ns

unfix           2
unfix			3
unfix			4

# WTMETAD

timer           timeout 71:30:00 every 1000
reset_timestep 	0
include		in.dump

fix             1 all plumed plumedfile plumed.start.dat outfile plumed.out
fix             2 all nph &
		x ${pressure} ${pressure} ${pressureDamp} &
		y ${pressure} ${pressure} ${pressureDamp} &
		z ${pressure} ${pressure} ${pressureDamp} &
		xy 0.0 0.0 ${pressureDamp} &
		yz 0.0 0.0 ${pressureDamp} &
		xz 0.0 0.0 ${pressureDamp} &
		couple xyz
fix             3 all temp/csvr ${temperature} ${temperature} ${tempDamp} ${seed}
fix		4 all momentum 10000 linear 1 1 1 angular

run             5000000 # 10 ns

write_data	data.final

